(set-logic ALL)
(declare-fun seed0_T_1 () Bool)
(declare-fun seed0_var_0xINPUT_112987 () String)
(assert (and (or (= seed0_T_1 (= "-" seed0_var_0xINPUT_112987)) (not (str.suffixof (str.++ seed0_var_0xINPUT_112987 "VlhcXm87GKg") (str.++ seed0_var_0xINPUT_112987 "n649OShDJB5rHvyWMP")))) (or seed0_T_1 (str.contains (str.++ seed0_var_0xINPUT_112987 "KAncJ4EYBLvibuk3f") (str.++ seed0_var_0xINPUT_112987 "dW8SbA3MfyXHTQIu2r")))))
(check-sat)
(exit)